# SCIP version 7.0.0.2

# should the problem be solved exactly (with proven dual bounds)? (Only possible if no problem has been read in yet)
# [type: bool, advanced: FALSE, range: {TRUE,FALSE}, default: FALSE]
exact/enabled = TRUE

# exip: method for computing safe dual bounds ('n'eumaier-shcherbina, 'p'roject-and-shift, 'e'xact LP, 'a'utomatic)
# [type: char, advanced: FALSE, range: {npea}, default: a]
exact/safedbmethod = n

presolving/milp/maxrounds = 0